sat
(:max-memory         18.63
 :memory             18.43
 :nlsat-arith-var    3
 :nlsat-atoms        17
 :nlsat-bool-var     2
 :nlsat-clauses      10
 :nlsat-conflicts    2
 :nlsat-decisions    2
 :nlsat-propagations 14
 :nlsat-stages       5
 :num-allocs         126773
 :rlimit-count       67964
 :time               0.06
 :total-time         0.07)
